WARNING: for repeatability, setting FPU to use double precision
============================[ Problem Statistics ]=============================
|                                                                             |
|  Number of variables:           100                                         |
|  Number of clauses:             449                                         |
|  Parse time:                   0.00 s                                       |
|  Eliminated clauses:           0.00 Mb                                      |
|  Simplification time:          0.00 s                                       |
|                                                                             |
============================[ Search Statistics ]==============================
| Conflicts |          ORIGINAL         |          LEARNT          | Progress |
|           |    Vars  Clauses Literals |    Limit  Clauses Lit/Cl |          |
===============================================================================
|       100 |      96      441     1349 |      161      100      7 |  0.010 % |
|       250 |      96      441     1349 |      177      167      6 |  0.010 % |
===============================================================================
restarts              : 3
conflicts             : 370            (93718 /sec)
decisions             : 438            (0.00 % random) (110942 /sec)
propagations          : 8669           (2195795 /sec)
conflict literals     : 2222           (24.11 % deleted)
Memory used           : 13.00 MB
CPU time              : 0.003948 s

SATISFIABLE
